nbGenes = 10;
preference = [[0 11 90 13 76 84 6 11 96 85 ]
[89 0 36 61 44 94 27 90 26 25 ]
[10 64 0 95 80 15 73 33 87 1 ]
[87 39 5 0 73 92 79 53 33 35 ]
[24 56 20 27 0 97 82 84 68 29 ]
[16 6 85 8 3 0 78 65 77 48 ]
[94 73 27 21 18 22 0 96 12 47 ]
[89 10 67 47 16 35 4 0 26 1 ]
[4 74 13 67 32 23 88 74 0 94 ]
[15 75 99 65 71 52 53 99 6 0 ]
];
